c A SAT instance generated from a 3-CNF formula that had 33 clauses and 11 variables
p cnf 11 33
6 1 2 0
-10 -11 -7 0
-2 -4 10 0
-4 -10 -7 0
-3 2 -8 0
2 -6 9 0
3 7 5 0
5 -1 2 0
-9 2 -8 0
2 -8 -11 0
-8 -7 2 0
6 9 4 0
-8 4 1 0
10 9 -1 0
10 1 -9 0
1 8 -3 0
-11 3 6 0
-1 -10 -2 0
11 7 -9 0
7 9 11 0
-4 -11 3 0
9 -4 2 0
3 6 5 0
10 -2 7 0
11 2 1 0
10 11 -2 0
-5 2 -11 0
5 -7 1 0
11 7 -8 0
5 -2 4 0
-3 -6 -1 0
6 -2 3 0
9 3 -7 0
